NAME: I14836-n25-k5
COMMENT : (Fake et al, No of trucks: 5, Optimal value: )
TYPE : CVRP
DIMENSION : 25
EDGE_WEIGHT_TYPE : EUC_2D
CAPACITY : 17
NODE_COORD_SECTION
1 379 620
2 567 326
3 519 182
4 464 690
5 569 42
6 49 3
7 556 607
8 416 172
9 291 833
10 455 322
11 922 925
12 846 826
13 753 164
14 817 138
15 173 761
16 293 472
17 321 784
18 600 527
19 629 925
20 58 936
21 375 440
22 692 588
23 941 379
24 248 307
25 507 329
DEMAND_SECTION
1 0
2 2
3 1
4 2
5 1
6 5
7 2
8 2
9 4
10 4
11 4
12 4
13 3
14 6
15 3
16 4
17 2
18 2
19 2
20 2
21 2
22 4
23 5
24 3
25 2
DEPOT_SECTION
 1
 -1
 EOF 